[[44, 45, 43, 42, 50, 49, 60, 51, 52, 53, 54, 63, 62, 61, 72, 81, 71], [70, 69, 78, 80, 79, 89, 90, 99, 98, 97, 88, 87, 96, 95, 86], [85, 94, 93, 92, 91, 82, 83, 73, 84, 74, 75, 76, 77, 68, 67], [66, 59, 58, 57, 56, 65, 64, 55, 46, 47, 38, 48, 39, 40], [41, 32, 31, 29, 28, 37, 30, 21, 22, 23, 13], [20, 19, 11, 10, 2, 12, 3, 4, 14, 5, 6, 15], [16, 7, 8, 9, 18, 17, 27, 36, 35, 26, 25, 24, 33, 34]]